(set-info :status unsat)
(declare-datatypes ((T 0)) ((
  (f0)
  (f1 (proj0f1 T) (proj1f1 T) (proj2f1 T))
  (f2 (proj0f2 T) (proj1f2 T))
  (f3 (proj0f3 T) (proj1f3 T) (proj2f3 T))
  (f4 (proj0f4 T)))))
(assert (exists ((y5810 T) (y5811 T) (y5820 T) (y5807 T) (y5806 T) (y5814 T) (y5815 T) (y5816 T) (y5817 T) (y5818 T) (y5809 T) (y5808 T)) (forall ((x5828 T) (x5829 T) (x5821 T) (x5822 T) (x5827 T) (x5824 T) (x5830 T)) 
  (or 
    (and (= x5829 (f4 (f3 y5806 (f2 x5827 x5827) (f4 x5827)))) (= y5806 (f4 x5829))) 
    (and (= y5807 x5830) (= y5808 (f3 y5807 x5827 x5827))) 
    (and (= y5809 (f3 (f3 (f2 (f4 y5809) (f3 x5827 x5827 x5827)) (f2 y5810 (f4 x5827)) x5827) (f2 (f4 x5827) (f3 x5827 x5827 x5827)) (f2 (f2 (f3 x5827 x5827 x5827) x5827) x5827))) (= y5810 (f2 y5809 x5827))) (= y5811 (f3 y5811 x5827 x5827)) (= x5828 x5822) (= x5824 (f4 (f3 (f3 x5824 x5827 x5827) x5827 (f4 x5827)))) 
    (and (= y5814 (f3 y5815 (f3 x5827 x5827 x5827) (f1 x5827 (f1 (f2 x5827 x5827) x5827 (f2 x5827 x5827)) (f2 (f3 x5827 x5827 x5827) (f4 x5827))))) (= y5815 (f3 y5816 (f2 (f1 x5827 x5827 x5827) x5827) (f4 x5827))) (= y5816 (f1 y5817 x5827 (f1 x5827 x5827 x5827))) (= y5817 (f3 y5814 y5814 x5827))) (= y5818 (f1 (f4 (f1 y5818 x5827 x5827)) (f2 (f3 y5818 x5827 x5827) (f3 x5827 x5827 x5827)) x5827)) 
    (and (= x5821 (f4 y5820)) (= y5820 (f2 x5821 x5827)))))))
(check-sat)
